g3 0 1 0	# problem elec25
 75 25 1 0 25	# vars, constraints, objectives, ranges, eqns
 25 1	# nonlinear constraints, objectives
 0 0	# network constraints: nonlinear, linear
 75 75 75	# nonlinear vars in constraints, objectives, both
 0 0 0 1	# linear network variables; functions; arith, flags
 0 0 0 0 0	# discrete variables: binary, integer, nonlinear (b,c,o)
 75 75	# nonzeros in Jacobian, gradients
 0 0	# max name lengths: constraints, variables
 0 0 0 0 0	# common exprs: b,c,o,c1,o1
b
3
3
3
3
3
3
3
3
3
3
3
3
3
3
3
3
3
3
3
3
3
3
3
3
3
3
3
3
3
3
3
3
3
3
3
3
3
3
3
3
3
3
3
3
3
3
3
3
3
3
3
3
3
3
3
3
3
3
3
3
3
3
3
3
3
3
3
3
3
3
3
3
3
3
3
x75
0 0.239180341590991
1 0.366795705695488
2 -0.824393694345008
3 -0.20445364152556
4 -0.213822736723748
5 0.0552164684243268
6 -0.586906863272324
7 0.298593602647523
8 0.355869249309419
9 -0.739872584978883
10 0.781972693719759
11 -0.842050067383099
12 0.763853183973836
13 0.0707385883845137
14 0.676966872258273
15 -0.615239159391388
16 0.194562217624882
17 -0.000422232856522465
18 -0.0710616666815774
19 -0.802987831773153
20 -0.344305154696255
21 -0.533805829063186
22 0.665382373979989
23 0.388420087049812
24 -0.682029983840943
25 0.446611486489583
26 -0.552573627870873
27 -0.270012939754188
28 0.614265045675796
29 0.787195952709942
30 0.335681675744966
31 0.809619787722586
32 -0.378664598119689
33 0.159642467758326
34 -0.000979349466686923
35 -0.00924905564272029
36 -0.454232023429031
37 -0.042600453543173
38 -0.91720202046222
39 0.727211440768476
40 -0.741026339314474
41 0.304537885768853
42 0.834446009909628
43 -0.127224428134585
44 0.34535116139819
45 0.417792969107124
46 0.720899917808122
47 0.72200222898579
48 0.535334038601125
49 -0.427520073559083
50 -0.862166424962131
51 0.748413853469436
52 -0.497461605643582
53 -0.762152978166359
54 0.578448242539515
55 0.940355759371844
56 -0.00749220741006433
57 0.876045080226371
58 -0.920799304888955
59 0.672746310931013
60 0.623244062343463
61 -0.290903683221246
62 -0.643982542225292
63 -0.392092470947082
64 0.113487330924153
65 0.268999518946722
66 0.932417406317752
67 0.551089537430458
68 0.989325115628965
69 0.485739762985462
70 0.840775234776954
71 -0.441989417704098
72 -0.189681516591112
73 -0.750031534731191
74 0.593347864111736
r
4 1
4 1
4 1
4 1
4 1
4 1
4 1
4 1
4 1
4 1
4 1
4 1
4 1
4 1
4 1
4 1
4 1
4 1
4 1
4 1
4 1
4 1
4 1
4 1
4 1
C0
o54
3
o5
v0
n2
o5
v25
n2
o5
v50
n2
C1
o54
3
o5
v1
n2
o5
v26
n2
o5
v51
n2
C2
o54
3
o5
v2
n2
o5
v27
n2
o5
v52
n2
C3
o54
3
o5
v3
n2
o5
v28
n2
o5
v53
n2
C4
o54
3
o5
v4
n2
o5
v29
n2
o5
v54
n2
C5
o54
3
o5
v5
n2
o5
v30
n2
o5
v55
n2
C6
o54
3
o5
v6
n2
o5
v31
n2
o5
v56
n2
C7
o54
3
o5
v7
n2
o5
v32
n2
o5
v57
n2
C8
o54
3
o5
v8
n2
o5
v33
n2
o5
v58
n2
C9
o54
3
o5
v9
n2
o5
v34
n2
o5
v59
n2
C10
o54
3
o5
v10
n2
o5
v35
n2
o5
v60
n2
C11
o54
3
o5
v11
n2
o5
v36
n2
o5
v61
n2
C12
o54
3
o5
v12
n2
o5
v37
n2
o5
v62
n2
C13
o54
3
o5
v13
n2
o5
v38
n2
o5
v63
n2
C14
o54
3
o5
v14
n2
o5
v39
n2
o5
v64
n2
C15
o54
3
o5
v15
n2
o5
v40
n2
o5
v65
n2
C16
o54
3
o5
v16
n2
o5
v41
n2
o5
v66
n2
C17
o54
3
o5
v17
n2
o5
v42
n2
o5
v67
n2
C18
o54
3
o5
v18
n2
o5
v43
n2
o5
v68
n2
C19
o54
3
o5
v19
n2
o5
v44
n2
o5
v69
n2
C20
o54
3
o5
v20
n2
o5
v45
n2
o5
v70
n2
C21
o54
3
o5
v21
n2
o5
v46
n2
o5
v71
n2
C22
o54
3
o5
v22
n2
o5
v47
n2
o5
v72
n2
C23
o54
3
o5
v23
n2
o5
v48
n2
o5
v73
n2
C24
o54
3
o5
v24
n2
o5
v49
n2
o5
v74
n2
O0 0
o54
300
o3
n1
o39
o54
3
o5
o1
v0
v1
n2
o5
o1
v25
v26
n2
o5
o1
v50
v51
n2
o3
n1
o39
o54
3
o5
o1
v0
v2
n2
o5
o1
v25
v27
n2
o5
o1
v50
v52
n2
o3
n1
o39
o54
3
o5
o1
v0
v3
n2
o5
o1
v25
v28
n2
o5
o1
v50
v53
n2
o3
n1
o39
o54
3
o5
o1
v0
v4
n2
o5
o1
v25
v29
n2
o5
o1
v50
v54
n2
o3
n1
o39
o54
3
o5
o1
v0
v5
n2
o5
o1
v25
v30
n2
o5
o1
v50
v55
n2
o3
n1
o39
o54
3
o5
o1
v0
v6
n2
o5
o1
v25
v31
n2
o5
o1
v50
v56
n2
o3
n1
o39
o54
3
o5
o1
v0
v7
n2
o5
o1
v25
v32
n2
o5
o1
v50
v57
n2
o3
n1
o39
o54
3
o5
o1
v0
v8
n2
o5
o1
v25
v33
n2
o5
o1
v50
v58
n2
o3
n1
o39
o54
3
o5
o1
v0
v9
n2
o5
o1
v25
v34
n2
o5
o1
v50
v59
n2
o3
n1
o39
o54
3
o5
o1
v0
v10
n2
o5
o1
v25
v35
n2
o5
o1
v50
v60
n2
o3
n1
o39
o54
3
o5
o1
v0
v11
n2
o5
o1
v25
v36
n2
o5
o1
v50
v61
n2
o3
n1
o39
o54
3
o5
o1
v0
v12
n2
o5
o1
v25
v37
n2
o5
o1
v50
v62
n2
o3
n1
o39
o54
3
o5
o1
v0
v13
n2
o5
o1
v25
v38
n2
o5
o1
v50
v63
n2
o3
n1
o39
o54
3
o5
o1
v0
v14
n2
o5
o1
v25
v39
n2
o5
o1
v50
v64
n2
o3
n1
o39
o54
3
o5
o1
v0
v15
n2
o5
o1
v25
v40
n2
o5
o1
v50
v65
n2
o3
n1
o39
o54
3
o5
o1
v0
v16
n2
o5
o1
v25
v41
n2
o5
o1
v50
v66
n2
o3
n1
o39
o54
3
o5
o1
v0
v17
n2
o5
o1
v25
v42
n2
o5
o1
v50
v67
n2
o3
n1
o39
o54
3
o5
o1
v0
v18
n2
o5
o1
v25
v43
n2
o5
o1
v50
v68
n2
o3
n1
o39
o54
3
o5
o1
v0
v19
n2
o5
o1
v25
v44
n2
o5
o1
v50
v69
n2
o3
n1
o39
o54
3
o5
o1
v0
v20
n2
o5
o1
v25
v45
n2
o5
o1
v50
v70
n2
o3
n1
o39
o54
3
o5
o1
v0
v21
n2
o5
o1
v25
v46
n2
o5
o1
v50
v71
n2
o3
n1
o39
o54
3
o5
o1
v0
v22
n2
o5
o1
v25
v47
n2
o5
o1
v50
v72
n2
o3
n1
o39
o54
3
o5
o1
v0
v23
n2
o5
o1
v25
v48
n2
o5
o1
v50
v73
n2
o3
n1
o39
o54
3
o5
o1
v0
v24
n2
o5
o1
v25
v49
n2
o5
o1
v50
v74
n2
o3
n1
o39
o54
3
o5
o1
v1
v2
n2
o5
o1
v26
v27
n2
o5
o1
v51
v52
n2
o3
n1
o39
o54
3
o5
o1
v1
v3
n2
o5
o1
v26
v28
n2
o5
o1
v51
v53
n2
o3
n1
o39
o54
3
o5
o1
v1
v4
n2
o5
o1
v26
v29
n2
o5
o1
v51
v54
n2
o3
n1
o39
o54
3
o5
o1
v1
v5
n2
o5
o1
v26
v30
n2
o5
o1
v51
v55
n2
o3
n1
o39
o54
3
o5
o1
v1
v6
n2
o5
o1
v26
v31
n2
o5
o1
v51
v56
n2
o3
n1
o39
o54
3
o5
o1
v1
v7
n2
o5
o1
v26
v32
n2
o5
o1
v51
v57
n2
o3
n1
o39
o54
3
o5
o1
v1
v8
n2
o5
o1
v26
v33
n2
o5
o1
v51
v58
n2
o3
n1
o39
o54
3
o5
o1
v1
v9
n2
o5
o1
v26
v34
n2
o5
o1
v51
v59
n2
o3
n1
o39
o54
3
o5
o1
v1
v10
n2
o5
o1
v26
v35
n2
o5
o1
v51
v60
n2
o3
n1
o39
o54
3
o5
o1
v1
v11
n2
o5
o1
v26
v36
n2
o5
o1
v51
v61
n2
o3
n1
o39
o54
3
o5
o1
v1
v12
n2
o5
o1
v26
v37
n2
o5
o1
v51
v62
n2
o3
n1
o39
o54
3
o5
o1
v1
v13
n2
o5
o1
v26
v38
n2
o5
o1
v51
v63
n2
o3
n1
o39
o54
3
o5
o1
v1
v14
n2
o5
o1
v26
v39
n2
o5
o1
v51
v64
n2
o3
n1
o39
o54
3
o5
o1
v1
v15
n2
o5
o1
v26
v40
n2
o5
o1
v51
v65
n2
o3
n1
o39
o54
3
o5
o1
v1
v16
n2
o5
o1
v26
v41
n2
o5
o1
v51
v66
n2
o3
n1
o39
o54
3
o5
o1
v1
v17
n2
o5
o1
v26
v42
n2
o5
o1
v51
v67
n2
o3
n1
o39
o54
3
o5
o1
v1
v18
n2
o5
o1
v26
v43
n2
o5
o1
v51
v68
n2
o3
n1
o39
o54
3
o5
o1
v1
v19
n2
o5
o1
v26
v44
n2
o5
o1
v51
v69
n2
o3
n1
o39
o54
3
o5
o1
v1
v20
n2
o5
o1
v26
v45
n2
o5
o1
v51
v70
n2
o3
n1
o39
o54
3
o5
o1
v1
v21
n2
o5
o1
v26
v46
n2
o5
o1
v51
v71
n2
o3
n1
o39
o54
3
o5
o1
v1
v22
n2
o5
o1
v26
v47
n2
o5
o1
v51
v72
n2
o3
n1
o39
o54
3
o5
o1
v1
v23
n2
o5
o1
v26
v48
n2
o5
o1
v51
v73
n2
o3
n1
o39
o54
3
o5
o1
v1
v24
n2
o5
o1
v26
v49
n2
o5
o1
v51
v74
n2
o3
n1
o39
o54
3
o5
o1
v2
v3
n2
o5
o1
v27
v28
n2
o5
o1
v52
v53
n2
o3
n1
o39
o54
3
o5
o1
v2
v4
n2
o5
o1
v27
v29
n2
o5
o1
v52
v54
n2
o3
n1
o39
o54
3
o5
o1
v2
v5
n2
o5
o1
v27
v30
n2
o5
o1
v52
v55
n2
o3
n1
o39
o54
3
o5
o1
v2
v6
n2
o5
o1
v27
v31
n2
o5
o1
v52
v56
n2
o3
n1
o39
o54
3
o5
o1
v2
v7
n2
o5
o1
v27
v32
n2
o5
o1
v52
v57
n2
o3
n1
o39
o54
3
o5
o1
v2
v8
n2
o5
o1
v27
v33
n2
o5
o1
v52
v58
n2
o3
n1
o39
o54
3
o5
o1
v2
v9
n2
o5
o1
v27
v34
n2
o5
o1
v52
v59
n2
o3
n1
o39
o54
3
o5
o1
v2
v10
n2
o5
o1
v27
v35
n2
o5
o1
v52
v60
n2
o3
n1
o39
o54
3
o5
o1
v2
v11
n2
o5
o1
v27
v36
n2
o5
o1
v52
v61
n2
o3
n1
o39
o54
3
o5
o1
v2
v12
n2
o5
o1
v27
v37
n2
o5
o1
v52
v62
n2
o3
n1
o39
o54
3
o5
o1
v2
v13
n2
o5
o1
v27
v38
n2
o5
o1
v52
v63
n2
o3
n1
o39
o54
3
o5
o1
v2
v14
n2
o5
o1
v27
v39
n2
o5
o1
v52
v64
n2
o3
n1
o39
o54
3
o5
o1
v2
v15
n2
o5
o1
v27
v40
n2
o5
o1
v52
v65
n2
o3
n1
o39
o54
3
o5
o1
v2
v16
n2
o5
o1
v27
v41
n2
o5
o1
v52
v66
n2
o3
n1
o39
o54
3
o5
o1
v2
v17
n2
o5
o1
v27
v42
n2
o5
o1
v52
v67
n2
o3
n1
o39
o54
3
o5
o1
v2
v18
n2
o5
o1
v27
v43
n2
o5
o1
v52
v68
n2
o3
n1
o39
o54
3
o5
o1
v2
v19
n2
o5
o1
v27
v44
n2
o5
o1
v52
v69
n2
o3
n1
o39
o54
3
o5
o1
v2
v20
n2
o5
o1
v27
v45
n2
o5
o1
v52
v70
n2
o3
n1
o39
o54
3
o5
o1
v2
v21
n2
o5
o1
v27
v46
n2
o5
o1
v52
v71
n2
o3
n1
o39
o54
3
o5
o1
v2
v22
n2
o5
o1
v27
v47
n2
o5
o1
v52
v72
n2
o3
n1
o39
o54
3
o5
o1
v2
v23
n2
o5
o1
v27
v48
n2
o5
o1
v52
v73
n2
o3
n1
o39
o54
3
o5
o1
v2
v24
n2
o5
o1
v27
v49
n2
o5
o1
v52
v74
n2
o3
n1
o39
o54
3
o5
o1
v3
v4
n2
o5
o1
v28
v29
n2
o5
o1
v53
v54
n2
o3
n1
o39
o54
3
o5
o1
v3
v5
n2
o5
o1
v28
v30
n2
o5
o1
v53
v55
n2
o3
n1
o39
o54
3
o5
o1
v3
v6
n2
o5
o1
v28
v31
n2
o5
o1
v53
v56
n2
o3
n1
o39
o54
3
o5
o1
v3
v7
n2
o5
o1
v28
v32
n2
o5
o1
v53
v57
n2
o3
n1
o39
o54
3
o5
o1
v3
v8
n2
o5
o1
v28
v33
n2
o5
o1
v53
v58
n2
o3
n1
o39
o54
3
o5
o1
v3
v9
n2
o5
o1
v28
v34
n2
o5
o1
v53
v59
n2
o3
n1
o39
o54
3
o5
o1
v3
v10
n2
o5
o1
v28
v35
n2
o5
o1
v53
v60
n2
o3
n1
o39
o54
3
o5
o1
v3
v11
n2
o5
o1
v28
v36
n2
o5
o1
v53
v61
n2
o3
n1
o39
o54
3
o5
o1
v3
v12
n2
o5
o1
v28
v37
n2
o5
o1
v53
v62
n2
o3
n1
o39
o54
3
o5
o1
v3
v13
n2
o5
o1
v28
v38
n2
o5
o1
v53
v63
n2
o3
n1
o39
o54
3
o5
o1
v3
v14
n2
o5
o1
v28
v39
n2
o5
o1
v53
v64
n2
o3
n1
o39
o54
3
o5
o1
v3
v15
n2
o5
o1
v28
v40
n2
o5
o1
v53
v65
n2
o3
n1
o39
o54
3
o5
o1
v3
v16
n2
o5
o1
v28
v41
n2
o5
o1
v53
v66
n2
o3
n1
o39
o54
3
o5
o1
v3
v17
n2
o5
o1
v28
v42
n2
o5
o1
v53
v67
n2
o3
n1
o39
o54
3
o5
o1
v3
v18
n2
o5
o1
v28
v43
n2
o5
o1
v53
v68
n2
o3
n1
o39
o54
3
o5
o1
v3
v19
n2
o5
o1
v28
v44
n2
o5
o1
v53
v69
n2
o3
n1
o39
o54
3
o5
o1
v3
v20
n2
o5
o1
v28
v45
n2
o5
o1
v53
v70
n2
o3
n1
o39
o54
3
o5
o1
v3
v21
n2
o5
o1
v28
v46
n2
o5
o1
v53
v71
n2
o3
n1
o39
o54
3
o5
o1
v3
v22
n2
o5
o1
v28
v47
n2
o5
o1
v53
v72
n2
o3
n1
o39
o54
3
o5
o1
v3
v23
n2
o5
o1
v28
v48
n2
o5
o1
v53
v73
n2
o3
n1
o39
o54
3
o5
o1
v3
v24
n2
o5
o1
v28
v49
n2
o5
o1
v53
v74
n2
o3
n1
o39
o54
3
o5
o1
v4
v5
n2
o5
o1
v29
v30
n2
o5
o1
v54
v55
n2
o3
n1
o39
o54
3
o5
o1
v4
v6
n2
o5
o1
v29
v31
n2
o5
o1
v54
v56
n2
o3
n1
o39
o54
3
o5
o1
v4
v7
n2
o5
o1
v29
v32
n2
o5
o1
v54
v57
n2
o3
n1
o39
o54
3
o5
o1
v4
v8
n2
o5
o1
v29
v33
n2
o5
o1
v54
v58
n2
o3
n1
o39
o54
3
o5
o1
v4
v9
n2
o5
o1
v29
v34
n2
o5
o1
v54
v59
n2
o3
n1
o39
o54
3
o5
o1
v4
v10
n2
o5
o1
v29
v35
n2
o5
o1
v54
v60
n2
o3
n1
o39
o54
3
o5
o1
v4
v11
n2
o5
o1
v29
v36
n2
o5
o1
v54
v61
n2
o3
n1
o39
o54
3
o5
o1
v4
v12
n2
o5
o1
v29
v37
n2
o5
o1
v54
v62
n2
o3
n1
o39
o54
3
o5
o1
v4
v13
n2
o5
o1
v29
v38
n2
o5
o1
v54
v63
n2
o3
n1
o39
o54
3
o5
o1
v4
v14
n2
o5
o1
v29
v39
n2
o5
o1
v54
v64
n2
o3
n1
o39
o54
3
o5
o1
v4
v15
n2
o5
o1
v29
v40
n2
o5
o1
v54
v65
n2
o3
n1
o39
o54
3
o5
o1
v4
v16
n2
o5
o1
v29
v41
n2
o5
o1
v54
v66
n2
o3
n1
o39
o54
3
o5
o1
v4
v17
n2
o5
o1
v29
v42
n2
o5
o1
v54
v67
n2
o3
n1
o39
o54
3
o5
o1
v4
v18
n2
o5
o1
v29
v43
n2
o5
o1
v54
v68
n2
o3
n1
o39
o54
3
o5
o1
v4
v19
n2
o5
o1
v29
v44
n2
o5
o1
v54
v69
n2
o3
n1
o39
o54
3
o5
o1
v4
v20
n2
o5
o1
v29
v45
n2
o5
o1
v54
v70
n2
o3
n1
o39
o54
3
o5
o1
v4
v21
n2
o5
o1
v29
v46
n2
o5
o1
v54
v71
n2
o3
n1
o39
o54
3
o5
o1
v4
v22
n2
o5
o1
v29
v47
n2
o5
o1
v54
v72
n2
o3
n1
o39
o54
3
o5
o1
v4
v23
n2
o5
o1
v29
v48
n2
o5
o1
v54
v73
n2
o3
n1
o39
o54
3
o5
o1
v4
v24
n2
o5
o1
v29
v49
n2
o5
o1
v54
v74
n2
o3
n1
o39
o54
3
o5
o1
v5
v6
n2
o5
o1
v30
v31
n2
o5
o1
v55
v56
n2
o3
n1
o39
o54
3
o5
o1
v5
v7
n2
o5
o1
v30
v32
n2
o5
o1
v55
v57
n2
o3
n1
o39
o54
3
o5
o1
v5
v8
n2
o5
o1
v30
v33
n2
o5
o1
v55
v58
n2
o3
n1
o39
o54
3
o5
o1
v5
v9
n2
o5
o1
v30
v34
n2
o5
o1
v55
v59
n2
o3
n1
o39
o54
3
o5
o1
v5
v10
n2
o5
o1
v30
v35
n2
o5
o1
v55
v60
n2
o3
n1
o39
o54
3
o5
o1
v5
v11
n2
o5
o1
v30
v36
n2
o5
o1
v55
v61
n2
o3
n1
o39
o54
3
o5
o1
v5
v12
n2
o5
o1
v30
v37
n2
o5
o1
v55
v62
n2
o3
n1
o39
o54
3
o5
o1
v5
v13
n2
o5
o1
v30
v38
n2
o5
o1
v55
v63
n2
o3
n1
o39
o54
3
o5
o1
v5
v14
n2
o5
o1
v30
v39
n2
o5
o1
v55
v64
n2
o3
n1
o39
o54
3
o5
o1
v5
v15
n2
o5
o1
v30
v40
n2
o5
o1
v55
v65
n2
o3
n1
o39
o54
3
o5
o1
v5
v16
n2
o5
o1
v30
v41
n2
o5
o1
v55
v66
n2
o3
n1
o39
o54
3
o5
o1
v5
v17
n2
o5
o1
v30
v42
n2
o5
o1
v55
v67
n2
o3
n1
o39
o54
3
o5
o1
v5
v18
n2
o5
o1
v30
v43
n2
o5
o1
v55
v68
n2
o3
n1
o39
o54
3
o5
o1
v5
v19
n2
o5
o1
v30
v44
n2
o5
o1
v55
v69
n2
o3
n1
o39
o54
3
o5
o1
v5
v20
n2
o5
o1
v30
v45
n2
o5
o1
v55
v70
n2
o3
n1
o39
o54
3
o5
o1
v5
v21
n2
o5
o1
v30
v46
n2
o5
o1
v55
v71
n2
o3
n1
o39
o54
3
o5
o1
v5
v22
n2
o5
o1
v30
v47
n2
o5
o1
v55
v72
n2
o3
n1
o39
o54
3
o5
o1
v5
v23
n2
o5
o1
v30
v48
n2
o5
o1
v55
v73
n2
o3
n1
o39
o54
3
o5
o1
v5
v24
n2
o5
o1
v30
v49
n2
o5
o1
v55
v74
n2
o3
n1
o39
o54
3
o5
o1
v6
v7
n2
o5
o1
v31
v32
n2
o5
o1
v56
v57
n2
o3
n1
o39
o54
3
o5
o1
v6
v8
n2
o5
o1
v31
v33
n2
o5
o1
v56
v58
n2
o3
n1
o39
o54
3
o5
o1
v6
v9
n2
o5
o1
v31
v34
n2
o5
o1
v56
v59
n2
o3
n1
o39
o54
3
o5
o1
v6
v10
n2
o5
o1
v31
v35
n2
o5
o1
v56
v60
n2
o3
n1
o39
o54
3
o5
o1
v6
v11
n2
o5
o1
v31
v36
n2
o5
o1
v56
v61
n2
o3
n1
o39
o54
3
o5
o1
v6
v12
n2
o5
o1
v31
v37
n2
o5
o1
v56
v62
n2
o3
n1
o39
o54
3
o5
o1
v6
v13
n2
o5
o1
v31
v38
n2
o5
o1
v56
v63
n2
o3
n1
o39
o54
3
o5
o1
v6
v14
n2
o5
o1
v31
v39
n2
o5
o1
v56
v64
n2
o3
n1
o39
o54
3
o5
o1
v6
v15
n2
o5
o1
v31
v40
n2
o5
o1
v56
v65
n2
o3
n1
o39
o54
3
o5
o1
v6
v16
n2
o5
o1
v31
v41
n2
o5
o1
v56
v66
n2
o3
n1
o39
o54
3
o5
o1
v6
v17
n2
o5
o1
v31
v42
n2
o5
o1
v56
v67
n2
o3
n1
o39
o54
3
o5
o1
v6
v18
n2
o5
o1
v31
v43
n2
o5
o1
v56
v68
n2
o3
n1
o39
o54
3
o5
o1
v6
v19
n2
o5
o1
v31
v44
n2
o5
o1
v56
v69
n2
o3
n1
o39
o54
3
o5
o1
v6
v20
n2
o5
o1
v31
v45
n2
o5
o1
v56
v70
n2
o3
n1
o39
o54
3
o5
o1
v6
v21
n2
o5
o1
v31
v46
n2
o5
o1
v56
v71
n2
o3
n1
o39
o54
3
o5
o1
v6
v22
n2
o5
o1
v31
v47
n2
o5
o1
v56
v72
n2
o3
n1
o39
o54
3
o5
o1
v6
v23
n2
o5
o1
v31
v48
n2
o5
o1
v56
v73
n2
o3
n1
o39
o54
3
o5
o1
v6
v24
n2
o5
o1
v31
v49
n2
o5
o1
v56
v74
n2
o3
n1
o39
o54
3
o5
o1
v7
v8
n2
o5
o1
v32
v33
n2
o5
o1
v57
v58
n2
o3
n1
o39
o54
3
o5
o1
v7
v9
n2
o5
o1
v32
v34
n2
o5
o1
v57
v59
n2
o3
n1
o39
o54
3
o5
o1
v7
v10
n2
o5
o1
v32
v35
n2
o5
o1
v57
v60
n2
o3
n1
o39
o54
3
o5
o1
v7
v11
n2
o5
o1
v32
v36
n2
o5
o1
v57
v61
n2
o3
n1
o39
o54
3
o5
o1
v7
v12
n2
o5
o1
v32
v37
n2
o5
o1
v57
v62
n2
o3
n1
o39
o54
3
o5
o1
v7
v13
n2
o5
o1
v32
v38
n2
o5
o1
v57
v63
n2
o3
n1
o39
o54
3
o5
o1
v7
v14
n2
o5
o1
v32
v39
n2
o5
o1
v57
v64
n2
o3
n1
o39
o54
3
o5
o1
v7
v15
n2
o5
o1
v32
v40
n2
o5
o1
v57
v65
n2
o3
n1
o39
o54
3
o5
o1
v7
v16
n2
o5
o1
v32
v41
n2
o5
o1
v57
v66
n2
o3
n1
o39
o54
3
o5
o1
v7
v17
n2
o5
o1
v32
v42
n2
o5
o1
v57
v67
n2
o3
n1
o39
o54
3
o5
o1
v7
v18
n2
o5
o1
v32
v43
n2
o5
o1
v57
v68
n2
o3
n1
o39
o54
3
o5
o1
v7
v19
n2
o5
o1
v32
v44
n2
o5
o1
v57
v69
n2
o3
n1
o39
o54
3
o5
o1
v7
v20
n2
o5
o1
v32
v45
n2
o5
o1
v57
v70
n2
o3
n1
o39
o54
3
o5
o1
v7
v21
n2
o5
o1
v32
v46
n2
o5
o1
v57
v71
n2
o3
n1
o39
o54
3
o5
o1
v7
v22
n2
o5
o1
v32
v47
n2
o5
o1
v57
v72
n2
o3
n1
o39
o54
3
o5
o1
v7
v23
n2
o5
o1
v32
v48
n2
o5
o1
v57
v73
n2
o3
n1
o39
o54
3
o5
o1
v7
v24
n2
o5
o1
v32
v49
n2
o5
o1
v57
v74
n2
o3
n1
o39
o54
3
o5
o1
v8
v9
n2
o5
o1
v33
v34
n2
o5
o1
v58
v59
n2
o3
n1
o39
o54
3
o5
o1
v8
v10
n2
o5
o1
v33
v35
n2
o5
o1
v58
v60
n2
o3
n1
o39
o54
3
o5
o1
v8
v11
n2
o5
o1
v33
v36
n2
o5
o1
v58
v61
n2
o3
n1
o39
o54
3
o5
o1
v8
v12
n2
o5
o1
v33
v37
n2
o5
o1
v58
v62
n2
o3
n1
o39
o54
3
o5
o1
v8
v13
n2
o5
o1
v33
v38
n2
o5
o1
v58
v63
n2
o3
n1
o39
o54
3
o5
o1
v8
v14
n2
o5
o1
v33
v39
n2
o5
o1
v58
v64
n2
o3
n1
o39
o54
3
o5
o1
v8
v15
n2
o5
o1
v33
v40
n2
o5
o1
v58
v65
n2
o3
n1
o39
o54
3
o5
o1
v8
v16
n2
o5
o1
v33
v41
n2
o5
o1
v58
v66
n2
o3
n1
o39
o54
3
o5
o1
v8
v17
n2
o5
o1
v33
v42
n2
o5
o1
v58
v67
n2
o3
n1
o39
o54
3
o5
o1
v8
v18
n2
o5
o1
v33
v43
n2
o5
o1
v58
v68
n2
o3
n1
o39
o54
3
o5
o1
v8
v19
n2
o5
o1
v33
v44
n2
o5
o1
v58
v69
n2
o3
n1
o39
o54
3
o5
o1
v8
v20
n2
o5
o1
v33
v45
n2
o5
o1
v58
v70
n2
o3
n1
o39
o54
3
o5
o1
v8
v21
n2
o5
o1
v33
v46
n2
o5
o1
v58
v71
n2
o3
n1
o39
o54
3
o5
o1
v8
v22
n2
o5
o1
v33
v47
n2
o5
o1
v58
v72
n2
o3
n1
o39
o54
3
o5
o1
v8
v23
n2
o5
o1
v33
v48
n2
o5
o1
v58
v73
n2
o3
n1
o39
o54
3
o5
o1
v8
v24
n2
o5
o1
v33
v49
n2
o5
o1
v58
v74
n2
o3
n1
o39
o54
3
o5
o1
v9
v10
n2
o5
o1
v34
v35
n2
o5
o1
v59
v60
n2
o3
n1
o39
o54
3
o5
o1
v9
v11
n2
o5
o1
v34
v36
n2
o5
o1
v59
v61
n2
o3
n1
o39
o54
3
o5
o1
v9
v12
n2
o5
o1
v34
v37
n2
o5
o1
v59
v62
n2
o3
n1
o39
o54
3
o5
o1
v9
v13
n2
o5
o1
v34
v38
n2
o5
o1
v59
v63
n2
o3
n1
o39
o54
3
o5
o1
v9
v14
n2
o5
o1
v34
v39
n2
o5
o1
v59
v64
n2
o3
n1
o39
o54
3
o5
o1
v9
v15
n2
o5
o1
v34
v40
n2
o5
o1
v59
v65
n2
o3
n1
o39
o54
3
o5
o1
v9
v16
n2
o5
o1
v34
v41
n2
o5
o1
v59
v66
n2
o3
n1
o39
o54
3
o5
o1
v9
v17
n2
o5
o1
v34
v42
n2
o5
o1
v59
v67
n2
o3
n1
o39
o54
3
o5
o1
v9
v18
n2
o5
o1
v34
v43
n2
o5
o1
v59
v68
n2
o3
n1
o39
o54
3
o5
o1
v9
v19
n2
o5
o1
v34
v44
n2
o5
o1
v59
v69
n2
o3
n1
o39
o54
3
o5
o1
v9
v20
n2
o5
o1
v34
v45
n2
o5
o1
v59
v70
n2
o3
n1
o39
o54
3
o5
o1
v9
v21
n2
o5
o1
v34
v46
n2
o5
o1
v59
v71
n2
o3
n1
o39
o54
3
o5
o1
v9
v22
n2
o5
o1
v34
v47
n2
o5
o1
v59
v72
n2
o3
n1
o39
o54
3
o5
o1
v9
v23
n2
o5
o1
v34
v48
n2
o5
o1
v59
v73
n2
o3
n1
o39
o54
3
o5
o1
v9
v24
n2
o5
o1
v34
v49
n2
o5
o1
v59
v74
n2
o3
n1
o39
o54
3
o5
o1
v10
v11
n2
o5
o1
v35
v36
n2
o5
o1
v60
v61
n2
o3
n1
o39
o54
3
o5
o1
v10
v12
n2
o5
o1
v35
v37
n2
o5
o1
v60
v62
n2
o3
n1
o39
o54
3
o5
o1
v10
v13
n2
o5
o1
v35
v38
n2
o5
o1
v60
v63
n2
o3
n1
o39
o54
3
o5
o1
v10
v14
n2
o5
o1
v35
v39
n2
o5
o1
v60
v64
n2
o3
n1
o39
o54
3
o5
o1
v10
v15
n2
o5
o1
v35
v40
n2
o5
o1
v60
v65
n2
o3
n1
o39
o54
3
o5
o1
v10
v16
n2
o5
o1
v35
v41
n2
o5
o1
v60
v66
n2
o3
n1
o39
o54
3
o5
o1
v10
v17
n2
o5
o1
v35
v42
n2
o5
o1
v60
v67
n2
o3
n1
o39
o54
3
o5
o1
v10
v18
n2
o5
o1
v35
v43
n2
o5
o1
v60
v68
n2
o3
n1
o39
o54
3
o5
o1
v10
v19
n2
o5
o1
v35
v44
n2
o5
o1
v60
v69
n2
o3
n1
o39
o54
3
o5
o1
v10
v20
n2
o5
o1
v35
v45
n2
o5
o1
v60
v70
n2
o3
n1
o39
o54
3
o5
o1
v10
v21
n2
o5
o1
v35
v46
n2
o5
o1
v60
v71
n2
o3
n1
o39
o54
3
o5
o1
v10
v22
n2
o5
o1
v35
v47
n2
o5
o1
v60
v72
n2
o3
n1
o39
o54
3
o5
o1
v10
v23
n2
o5
o1
v35
v48
n2
o5
o1
v60
v73
n2
o3
n1
o39
o54
3
o5
o1
v10
v24
n2
o5
o1
v35
v49
n2
o5
o1
v60
v74
n2
o3
n1
o39
o54
3
o5
o1
v11
v12
n2
o5
o1
v36
v37
n2
o5
o1
v61
v62
n2
o3
n1
o39
o54
3
o5
o1
v11
v13
n2
o5
o1
v36
v38
n2
o5
o1
v61
v63
n2
o3
n1
o39
o54
3
o5
o1
v11
v14
n2
o5
o1
v36
v39
n2
o5
o1
v61
v64
n2
o3
n1
o39
o54
3
o5
o1
v11
v15
n2
o5
o1
v36
v40
n2
o5
o1
v61
v65
n2
o3
n1
o39
o54
3
o5
o1
v11
v16
n2
o5
o1
v36
v41
n2
o5
o1
v61
v66
n2
o3
n1
o39
o54
3
o5
o1
v11
v17
n2
o5
o1
v36
v42
n2
o5
o1
v61
v67
n2
o3
n1
o39
o54
3
o5
o1
v11
v18
n2
o5
o1
v36
v43
n2
o5
o1
v61
v68
n2
o3
n1
o39
o54
3
o5
o1
v11
v19
n2
o5
o1
v36
v44
n2
o5
o1
v61
v69
n2
o3
n1
o39
o54
3
o5
o1
v11
v20
n2
o5
o1
v36
v45
n2
o5
o1
v61
v70
n2
o3
n1
o39
o54
3
o5
o1
v11
v21
n2
o5
o1
v36
v46
n2
o5
o1
v61
v71
n2
o3
n1
o39
o54
3
o5
o1
v11
v22
n2
o5
o1
v36
v47
n2
o5
o1
v61
v72
n2
o3
n1
o39
o54
3
o5
o1
v11
v23
n2
o5
o1
v36
v48
n2
o5
o1
v61
v73
n2
o3
n1
o39
o54
3
o5
o1
v11
v24
n2
o5
o1
v36
v49
n2
o5
o1
v61
v74
n2
o3
n1
o39
o54
3
o5
o1
v12
v13
n2
o5
o1
v37
v38
n2
o5
o1
v62
v63
n2
o3
n1
o39
o54
3
o5
o1
v12
v14
n2
o5
o1
v37
v39
n2
o5
o1
v62
v64
n2
o3
n1
o39
o54
3
o5
o1
v12
v15
n2
o5
o1
v37
v40
n2
o5
o1
v62
v65
n2
o3
n1
o39
o54
3
o5
o1
v12
v16
n2
o5
o1
v37
v41
n2
o5
o1
v62
v66
n2
o3
n1
o39
o54
3
o5
o1
v12
v17
n2
o5
o1
v37
v42
n2
o5
o1
v62
v67
n2
o3
n1
o39
o54
3
o5
o1
v12
v18
n2
o5
o1
v37
v43
n2
o5
o1
v62
v68
n2
o3
n1
o39
o54
3
o5
o1
v12
v19
n2
o5
o1
v37
v44
n2
o5
o1
v62
v69
n2
o3
n1
o39
o54
3
o5
o1
v12
v20
n2
o5
o1
v37
v45
n2
o5
o1
v62
v70
n2
o3
n1
o39
o54
3
o5
o1
v12
v21
n2
o5
o1
v37
v46
n2
o5
o1
v62
v71
n2
o3
n1
o39
o54
3
o5
o1
v12
v22
n2
o5
o1
v37
v47
n2
o5
o1
v62
v72
n2
o3
n1
o39
o54
3
o5
o1
v12
v23
n2
o5
o1
v37
v48
n2
o5
o1
v62
v73
n2
o3
n1
o39
o54
3
o5
o1
v12
v24
n2
o5
o1
v37
v49
n2
o5
o1
v62
v74
n2
o3
n1
o39
o54
3
o5
o1
v13
v14
n2
o5
o1
v38
v39
n2
o5
o1
v63
v64
n2
o3
n1
o39
o54
3
o5
o1
v13
v15
n2
o5
o1
v38
v40
n2
o5
o1
v63
v65
n2
o3
n1
o39
o54
3
o5
o1
v13
v16
n2
o5
o1
v38
v41
n2
o5
o1
v63
v66
n2
o3
n1
o39
o54
3
o5
o1
v13
v17
n2
o5
o1
v38
v42
n2
o5
o1
v63
v67
n2
o3
n1
o39
o54
3
o5
o1
v13
v18
n2
o5
o1
v38
v43
n2
o5
o1
v63
v68
n2
o3
n1
o39
o54
3
o5
o1
v13
v19
n2
o5
o1
v38
v44
n2
o5
o1
v63
v69
n2
o3
n1
o39
o54
3
o5
o1
v13
v20
n2
o5
o1
v38
v45
n2
o5
o1
v63
v70
n2
o3
n1
o39
o54
3
o5
o1
v13
v21
n2
o5
o1
v38
v46
n2
o5
o1
v63
v71
n2
o3
n1
o39
o54
3
o5
o1
v13
v22
n2
o5
o1
v38
v47
n2
o5
o1
v63
v72
n2
o3
n1
o39
o54
3
o5
o1
v13
v23
n2
o5
o1
v38
v48
n2
o5
o1
v63
v73
n2
o3
n1
o39
o54
3
o5
o1
v13
v24
n2
o5
o1
v38
v49
n2
o5
o1
v63
v74
n2
o3
n1
o39
o54
3
o5
o1
v14
v15
n2
o5
o1
v39
v40
n2
o5
o1
v64
v65
n2
o3
n1
o39
o54
3
o5
o1
v14
v16
n2
o5
o1
v39
v41
n2
o5
o1
v64
v66
n2
o3
n1
o39
o54
3
o5
o1
v14
v17
n2
o5
o1
v39
v42
n2
o5
o1
v64
v67
n2
o3
n1
o39
o54
3
o5
o1
v14
v18
n2
o5
o1
v39
v43
n2
o5
o1
v64
v68
n2
o3
n1
o39
o54
3
o5
o1
v14
v19
n2
o5
o1
v39
v44
n2
o5
o1
v64
v69
n2
o3
n1
o39
o54
3
o5
o1
v14
v20
n2
o5
o1
v39
v45
n2
o5
o1
v64
v70
n2
o3
n1
o39
o54
3
o5
o1
v14
v21
n2
o5
o1
v39
v46
n2
o5
o1
v64
v71
n2
o3
n1
o39
o54
3
o5
o1
v14
v22
n2
o5
o1
v39
v47
n2
o5
o1
v64
v72
n2
o3
n1
o39
o54
3
o5
o1
v14
v23
n2
o5
o1
v39
v48
n2
o5
o1
v64
v73
n2
o3
n1
o39
o54
3
o5
o1
v14
v24
n2
o5
o1
v39
v49
n2
o5
o1
v64
v74
n2
o3
n1
o39
o54
3
o5
o1
v15
v16
n2
o5
o1
v40
v41
n2
o5
o1
v65
v66
n2
o3
n1
o39
o54
3
o5
o1
v15
v17
n2
o5
o1
v40
v42
n2
o5
o1
v65
v67
n2
o3
n1
o39
o54
3
o5
o1
v15
v18
n2
o5
o1
v40
v43
n2
o5
o1
v65
v68
n2
o3
n1
o39
o54
3
o5
o1
v15
v19
n2
o5
o1
v40
v44
n2
o5
o1
v65
v69
n2
o3
n1
o39
o54
3
o5
o1
v15
v20
n2
o5
o1
v40
v45
n2
o5
o1
v65
v70
n2
o3
n1
o39
o54
3
o5
o1
v15
v21
n2
o5
o1
v40
v46
n2
o5
o1
v65
v71
n2
o3
n1
o39
o54
3
o5
o1
v15
v22
n2
o5
o1
v40
v47
n2
o5
o1
v65
v72
n2
o3
n1
o39
o54
3
o5
o1
v15
v23
n2
o5
o1
v40
v48
n2
o5
o1
v65
v73
n2
o3
n1
o39
o54
3
o5
o1
v15
v24
n2
o5
o1
v40
v49
n2
o5
o1
v65
v74
n2
o3
n1
o39
o54
3
o5
o1
v16
v17
n2
o5
o1
v41
v42
n2
o5
o1
v66
v67
n2
o3
n1
o39
o54
3
o5
o1
v16
v18
n2
o5
o1
v41
v43
n2
o5
o1
v66
v68
n2
o3
n1
o39
o54
3
o5
o1
v16
v19
n2
o5
o1
v41
v44
n2
o5
o1
v66
v69
n2
o3
n1
o39
o54
3
o5
o1
v16
v20
n2
o5
o1
v41
v45
n2
o5
o1
v66
v70
n2
o3
n1
o39
o54
3
o5
o1
v16
v21
n2
o5
o1
v41
v46
n2
o5
o1
v66
v71
n2
o3
n1
o39
o54
3
o5
o1
v16
v22
n2
o5
o1
v41
v47
n2
o5
o1
v66
v72
n2
o3
n1
o39
o54
3
o5
o1
v16
v23
n2
o5
o1
v41
v48
n2
o5
o1
v66
v73
n2
o3
n1
o39
o54
3
o5
o1
v16
v24
n2
o5
o1
v41
v49
n2
o5
o1
v66
v74
n2
o3
n1
o39
o54
3
o5
o1
v17
v18
n2
o5
o1
v42
v43
n2
o5
o1
v67
v68
n2
o3
n1
o39
o54
3
o5
o1
v17
v19
n2
o5
o1
v42
v44
n2
o5
o1
v67
v69
n2
o3
n1
o39
o54
3
o5
o1
v17
v20
n2
o5
o1
v42
v45
n2
o5
o1
v67
v70
n2
o3
n1
o39
o54
3
o5
o1
v17
v21
n2
o5
o1
v42
v46
n2
o5
o1
v67
v71
n2
o3
n1
o39
o54
3
o5
o1
v17
v22
n2
o5
o1
v42
v47
n2
o5
o1
v67
v72
n2
o3
n1
o39
o54
3
o5
o1
v17
v23
n2
o5
o1
v42
v48
n2
o5
o1
v67
v73
n2
o3
n1
o39
o54
3
o5
o1
v17
v24
n2
o5
o1
v42
v49
n2
o5
o1
v67
v74
n2
o3
n1
o39
o54
3
o5
o1
v18
v19
n2
o5
o1
v43
v44
n2
o5
o1
v68
v69
n2
o3
n1
o39
o54
3
o5
o1
v18
v20
n2
o5
o1
v43
v45
n2
o5
o1
v68
v70
n2
o3
n1
o39
o54
3
o5
o1
v18
v21
n2
o5
o1
v43
v46
n2
o5
o1
v68
v71
n2
o3
n1
o39
o54
3
o5
o1
v18
v22
n2
o5
o1
v43
v47
n2
o5
o1
v68
v72
n2
o3
n1
o39
o54
3
o5
o1
v18
v23
n2
o5
o1
v43
v48
n2
o5
o1
v68
v73
n2
o3
n1
o39
o54
3
o5
o1
v18
v24
n2
o5
o1
v43
v49
n2
o5
o1
v68
v74
n2
o3
n1
o39
o54
3
o5
o1
v19
v20
n2
o5
o1
v44
v45
n2
o5
o1
v69
v70
n2
o3
n1
o39
o54
3
o5
o1
v19
v21
n2
o5
o1
v44
v46
n2
o5
o1
v69
v71
n2
o3
n1
o39
o54
3
o5
o1
v19
v22
n2
o5
o1
v44
v47
n2
o5
o1
v69
v72
n2
o3
n1
o39
o54
3
o5
o1
v19
v23
n2
o5
o1
v44
v48
n2
o5
o1
v69
v73
n2
o3
n1
o39
o54
3
o5
o1
v19
v24
n2
o5
o1
v44
v49
n2
o5
o1
v69
v74
n2
o3
n1
o39
o54
3
o5
o1
v20
v21
n2
o5
o1
v45
v46
n2
o5
o1
v70
v71
n2
o3
n1
o39
o54
3
o5
o1
v20
v22
n2
o5
o1
v45
v47
n2
o5
o1
v70
v72
n2
o3
n1
o39
o54
3
o5
o1
v20
v23
n2
o5
o1
v45
v48
n2
o5
o1
v70
v73
n2
o3
n1
o39
o54
3
o5
o1
v20
v24
n2
o5
o1
v45
v49
n2
o5
o1
v70
v74
n2
o3
n1
o39
o54
3
o5
o1
v21
v22
n2
o5
o1
v46
v47
n2
o5
o1
v71
v72
n2
o3
n1
o39
o54
3
o5
o1
v21
v23
n2
o5
o1
v46
v48
n2
o5
o1
v71
v73
n2
o3
n1
o39
o54
3
o5
o1
v21
v24
n2
o5
o1
v46
v49
n2
o5
o1
v71
v74
n2
o3
n1
o39
o54
3
o5
o1
v22
v23
n2
o5
o1
v47
v48
n2
o5
o1
v72
v73
n2
o3
n1
o39
o54
3
o5
o1
v22
v24
n2
o5
o1
v47
v49
n2
o5
o1
v72
v74
n2
o3
n1
o39
o54
3
o5
o1
v23
v24
n2
o5
o1
v48
v49
n2
o5
o1
v73
v74
n2
k74
1
2
3
4
5
6
7
8
9
10
11
12
13
14
15
16
17
18
19
20
21
22
23
24
25
26
27
28
29
30
31
32
33
34
35
36
37
38
39
40
41
42
43
44
45
46
47
48
49
50
51
52
53
54
55
56
57
58
59
60
61
62
63
64
65
66
67
68
69
70
71
72
73
74
J0 3
0 0
25 0
50 0
J1 3
1 0
26 0
51 0
J2 3
2 0
27 0
52 0
J3 3
3 0
28 0
53 0
J4 3
4 0
29 0
54 0
J5 3
5 0
30 0
55 0
J6 3
6 0
31 0
56 0
J7 3
7 0
32 0
57 0
J8 3
8 0
33 0
58 0
J9 3
9 0
34 0
59 0
J10 3
10 0
35 0
60 0
J11 3
11 0
36 0
61 0
J12 3
12 0
37 0
62 0
J13 3
13 0
38 0
63 0
J14 3
14 0
39 0
64 0
J15 3
15 0
40 0
65 0
J16 3
16 0
41 0
66 0
J17 3
17 0
42 0
67 0
J18 3
18 0
43 0
68 0
J19 3
19 0
44 0
69 0
J20 3
20 0
45 0
70 0
J21 3
21 0
46 0
71 0
J22 3
22 0
47 0
72 0
J23 3
23 0
48 0
73 0
J24 3
24 0
49 0
74 0
G0 75
0 0
1 0
2 0
3 0
4 0
5 0
6 0
7 0
8 0
9 0
10 0
11 0
12 0
13 0
14 0
15 0
16 0
17 0
18 0
19 0
20 0
21 0
22 0
23 0
24 0
25 0
26 0
27 0
28 0
29 0
30 0
31 0
32 0
33 0
34 0
35 0
36 0
37 0
38 0
39 0
40 0
41 0
42 0
43 0
44 0
45 0
46 0
47 0
48 0
49 0
50 0
51 0
52 0
53 0
54 0
55 0
56 0
57 0
58 0
59 0
60 0
61 0
62 0
63 0
64 0
65 0
66 0
67 0
68 0
69 0
70 0
71 0
72 0
73 0
74 0
